c Reduced graph for GEOM110b_0 generated by Cyril Grelier
p edge 107 1234
e 1 2
e 1 3
e 1 5
e 1 6
e 1 7
e 1 8
e 1 9
e 1 10
e 1 11
e 1 12
e 1 13
e 1 14
e 1 15
e 1 16
e 1 17
e 1 18
e 1 19
e 1 20
e 1 21
e 1 22
e 1 24
e 1 27
e 1 28
e 1 29
e 1 30
e 1 32
e 1 37
e 1 39
e 1 40
e 1 41
e 1 43
e 1 44
e 1 45
e 1 46
e 1 52
e 1 54
e 1 57
e 1 67
e 1 70
e 2 3
e 2 5
e 2 6
e 2 7
e 2 8
e 2 9
e 2 10
e 2 11
e 2 12
e 2 13
e 2 15
e 2 16
e 2 17
e 2 18
e 2 20
e 2 21
e 2 22
e 2 23
e 2 24
e 2 25
e 2 27
e 2 28
e 2 29
e 2 30
e 2 32
e 2 34
e 2 39
e 2 40
e 2 41
e 2 42
e 2 43
e 2 49
e 2 52
e 2 59
e 2 61
e 3 5
e 3 6
e 3 9
e 3 10
e 3 12
e 3 13
e 3 16
e 3 17
e 3 18
e 3 19
e 3 21
e 3 24
e 3 27
e 3 28
e 3 30
e 3 37
e 3 39
e 3 40
e 3 41
e 3 43
e 3 44
e 3 45
e 3 46
e 3 52
e 3 54
e 3 57
e 3 61
e 3 67
e 3 68
e 3 70
e 3 71
e 3 76
e 3 91
e 4 8
e 4 9
e 4 10
e 4 12
e 4 13
e 4 14
e 4 16
e 4 17
e 4 18
e 4 24
e 4 26
e 4 28
e 4 31
e 4 33
e 4 35
e 4 36
e 4 38
e 4 48
e 4 50
e 4 51
e 4 55
e 4 56
e 4 58
e 4 60
e 4 66
e 4 69
e 4 72
e 4 73
e 4 74
e 4 78
e 4 80
e 4 81
e 4 83
e 4 86
e 4 89
e 5 6
e 5 7
e 5 8
e 5 9
e 5 10
e 5 11
e 5 12
e 5 13
e 5 15
e 5 20
e 5 21
e 5 22
e 5 23
e 5 25
e 5 27
e 5 29
e 5 32
e 5 34
e 5 39
e 5 40
e 5 41
e 5 43
e 5 49
e 5 52
e 5 57
e 5 59
e 5 61
e 5 62
e 5 63
e 5 65
e 5 67
e 5 75
e 6 7
e 6 8
e 6 9
e 6 10
e 6 12
e 6 13
e 6 14
e 6 15
e 6 16
e 6 17
e 6 18
e 6 19
e 6 20
e 6 21
e 6 24
e 6 27
e 6 28
e 6 29
e 6 30
e 6 31
e 6 37
e 6 39
e 6 40
e 6 41
e 6 43
e 6 44
e 6 45
e 6 46
e 6 54
e 6 70
e 7 8
e 7 9
e 7 10
e 7 11
e 7 12
e 7 13
e 7 15
e 7 20
e 7 22
e 7 23
e 7 24
e 7 25
e 7 27
e 7 28
e 7 29
e 7 32
e 7 34
e 7 35
e 7 41
e 7 42
e 7 47
e 7 49
e 7 59
e 7 62
e 7 63
e 7 64
e 7 65
e 7 75
e 7 79
e 7 85
e 8 9
e 8 10
e 8 11
e 8 12
e 8 13
e 8 14
e 8 15
e 8 16
e 8 17
e 8 18
e 8 20
e 8 24
e 8 25
e 8 26
e 8 28
e 8 29
e 8 31
e 8 33
e 8 34
e 8 35
e 8 36
e 8 38
e 8 42
e 8 47
e 8 48
e 8 53
e 8 72
e 9 10
e 9 11
e 9 12
e 9 13
e 9 14
e 9 15
e 9 16
e 9 17
e 9 18
e 9 19
e 9 20
e 9 21
e 9 22
e 9 24
e 9 25
e 9 27
e 9 28
e 9 29
e 9 31
e 9 32
e 9 34
e 9 41
e 9 42
e 9 44
e 9 45
e 10 11
e 10 12
e 10 13
e 10 14
e 10 15
e 10 16
e 10 17
e 10 18
e 10 19
e 10 20
e 10 21
e 10 22
e 10 24
e 10 25
e 10 27
e 10 28
e 10 29
e 10 31
e 10 32
e 10 34
e 10 35
e 10 42
e 10 44
e 10 45
e 11 12
e 11 13
e 11 15
e 11 20
e 11 22
e 11 23
e 11 24
e 11 25
e 11 27
e 11 28
e 11 29
e 11 32
e 11 34
e 11 35
e 11 41
e 11 42
e 11 47
e 11 49
e 11 62
e 11 63
e 11 64
e 11 65
e 11 75
e 11 79
e 11 85
e 12 13
e 12 15
e 12 16
e 12 17
e 12 18
e 12 20
e 12 21
e 12 22
e 12 23
e 12 24
e 12 25
e 12 27
e 12 28
e 12 29
e 12 31
e 12 32
e 12 34
e 12 35
e 12 38
e 12 42
e 12 47
e 13 15
e 13 16
e 13 17
e 13 18
e 13 20
e 13 21
e 13 22
e 13 23
e 13 24
e 13 25
e 13 27
e 13 28
e 13 29
e 13 31
e 13 32
e 13 34
e 13 35
e 13 38
e 13 42
e 13 47
e 14 16
e 14 17
e 14 18
e 14 19
e 14 24
e 14 26
e 14 28
e 14 31
e 14 33
e 14 44
e 14 45
e 14 48
e 14 50
e 14 51
e 14 54
e 14 56
e 14 70
e 14 74
e 14 78
e 14 80
e 14 81
e 14 83
e 14 90
e 14 91
e 14 92
e 15 16
e 15 18
e 15 20
e 15 22
e 15 23
e 15 24
e 15 25
e 15 27
e 15 28
e 15 29
e 15 32
e 15 34
e 15 35
e 15 38
e 15 41
e 15 42
e 15 47
e 15 53
e 15 64
e 15 75
e 16 17
e 16 18
e 16 20
e 16 24
e 16 26
e 16 28
e 16 29
e 16 31
e 16 33
e 16 35
e 16 36
e 16 42
e 16 44
e 16 45
e 16 48
e 16 50
e 16 51
e 16 56
e 16 78
e 17 18
e 17 19
e 17 24
e 17 26
e 17 28
e 17 31
e 17 33
e 17 44
e 17 45
e 17 48
e 17 51
e 17 54
e 17 70
e 17 78
e 17 81
e 17 83
e 17 90
e 17 91
e 17 92
e 18 19
e 18 20
e 18 24
e 18 26
e 18 28
e 18 29
e 18 31
e 18 33
e 18 44
e 18 45
e 18 48
e 18 51
e 18 70
e 18 78
e 18 81
e 18 90
e 19 21
e 19 30
e 19 37
e 19 39
e 19 40
e 19 43
e 19 44
e 19 45
e 19 46
e 19 54
e 19 68
e 19 70
e 19 71
e 19 76
e 19 77
e 19 78
e 19 82
e 19 87
e 19 90
e 19 91
e 19 93
e 19 95
e 20 22
e 20 23
e 20 24
e 20 25
e 20 28
e 20 29
e 20 32
e 20 34
e 20 35
e 20 36
e 20 38
e 20 42
e 20 47
e 20 53
e 20 64
e 20 72
e 21 27
e 21 30
e 21 37
e 21 39
e 21 40
e 21 41
e 21 43
e 21 44
e 21 45
e 21 46
e 21 52
e 21 54
e 21 57
e 21 61
e 21 67
e 21 68
e 21 71
e 21 76
e 21 77
e 21 82
e 22 23
e 22 25
e 22 27
e 22 29
e 22 32
e 22 34
e 22 40
e 22 41
e 22 49
e 22 52
e 22 59
e 22 61
e 22 62
e 22 63
e 22 65
e 22 75
e 22 79
e 22 85
e 22 88
e 23 25
e 23 27
e 23 29
e 23 32
e 23 34
e 23 41
e 23 49
e 23 59
e 23 61
e 23 62
e 23 63
e 23 64
e 23 65
e 23 75
e 23 79
e 23 85
e 23 88
e 23 98
e 23 99
e 23 100
e 23 103
e 24 26
e 24 28
e 24 29
e 24 31
e 24 33
e 24 34
e 24 35
e 24 36
e 24 38
e 24 42
e 24 47
e 24 48
e 25 27
e 25 29
e 25 32
e 25 34
e 25 41
e 25 42
e 25 49
e 25 59
e 25 62
e 25 63
e 25 64
e 25 65
e 25 75
e 25 79
e 25 85
e 25 88
e 25 99
e 26 28
e 26 31
e 26 33
e 26 35
e 26 36
e 26 38
e 26 48
e 26 50
e 26 51
e 26 55
e 26 56
e 26 58
e 26 60
e 26 66
e 26 69
e 26 72
e 26 73
e 26 74
e 26 80
e 26 81
e 26 83
e 26 86
e 26 89
e 27 32
e 27 39
e 27 40
e 27 41
e 27 43
e 27 49
e 27 52
e 27 57
e 27 59
e 27 61
e 27 62
e 27 63
e 27 65
e 27 67
e 28 29
e 28 31
e 28 33
e 28 34
e 28 35
e 28 36
e 28 38
e 28 42
e 28 47
e 28 48
e 29 32
e 29 34
e 29 35
e 29 36
e 29 38
e 29 42
e 29 47
e 29 53
e 29 64
e 30 37
e 30 39
e 30 40
e 30 43
e 30 44
e 30 45
e 30 46
e 30 52
e 30 54
e 30 57
e 30 61
e 30 67
e 30 68
e 30 70
e 30 71
e 30 76
e 30 77
e 30 82
e 30 87
e 30 90
e 30 91
e 30 93
e 30 95
e 31 33
e 31 44
e 31 45
e 31 48
e 31 50
e 31 51
e 31 56
e 31 70
e 31 73
e 31 74
e 31 78
e 31 80
e 31 81
e 31 83
e 31 92
e 32 34
e 32 41
e 32 49
e 32 52
e 32 59
e 32 61
e 32 62
e 32 63
e 32 65
e 32 75
e 32 79
e 32 85
e 32 88
e 33 36
e 33 48
e 33 50
e 33 51
e 33 55
e 33 56
e 33 58
e 33 60
e 33 66
e 33 69
e 33 73
e 33 74
e 33 78
e 33 80
e 33 81
e 33 83
e 33 86
e 33 89
e 33 92
e 34 35
e 34 36
e 34 38
e 34 42
e 34 47
e 34 53
e 34 64
e 34 75
e 34 79
e 34 84
e 34 96
e 35 36
e 35 38
e 35 42
e 35 47
e 35 53
e 35 55
e 35 58
e 35 60
e 35 64
e 35 66
e 35 72
e 35 84
e 35 102
e 36 38
e 36 42
e 36 47
e 36 50
e 36 53
e 36 55
e 36 56
e 36 58
e 36 60
e 36 66
e 36 69
e 36 72
e 36 84
e 36 94
e 36 97
e 36 101
e 37 39
e 37 40
e 37 43
e 37 44
e 37 45
e 37 46
e 37 52
e 37 54
e 37 57
e 37 67
e 37 68
e 37 70
e 37 71
e 37 76
e 37 77
e 37 82
e 37 87
e 37 90
e 37 91
e 37 93
e 37 95
e 38 42
e 38 47
e 38 53
e 38 55
e 38 58
e 38 60
e 38 66
e 38 69
e 38 72
e 38 84
e 38 94
e 38 97
e 38 101
e 38 102
e 39 40
e 39 41
e 39 43
e 39 46
e 39 49
e 39 52
e 39 57
e 39 61
e 39 67
e 39 68
e 39 71
e 39 76
e 39 77
e 39 82
e 39 87
e 39 93
e 40 41
e 40 43
e 40 46
e 40 49
e 40 52
e 40 57
e 40 59
e 40 61
e 40 65
e 40 67
e 40 71
e 40 76
e 40 77
e 40 82
e 41 43
e 41 49
e 41 52
e 41 57
e 41 59
e 41 61
e 41 63
e 41 65
e 41 67
e 42 47
e 42 53
e 42 58
e 42 64
e 42 72
e 42 84
e 42 96
e 43 46
e 43 49
e 43 52
e 43 57
e 43 59
e 43 61
e 43 67
e 43 71
e 43 76
e 43 77
e 43 82
e 43 93
e 44 45
e 44 46
e 44 51
e 44 54
e 44 68
e 44 70
e 44 78
e 44 87
e 44 90
e 44 91
e 44 92
e 45 46
e 45 48
e 45 51
e 45 54
e 45 68
e 45 70
e 45 78
e 45 90
e 45 91
e 45 92
e 46 52
e 46 54
e 46 57
e 46 61
e 46 67
e 46 68
e 46 71
e 46 76
e 46 77
e 46 82
e 46 87
e 46 93
e 46 95
e 47 53
e 47 55
e 47 58
e 47 64
e 47 66
e 47 72
e 47 84
e 47 96
e 47 102
e 48 50
e 48 51
e 48 56
e 48 60
e 48 73
e 48 74
e 48 78
e 48 80
e 48 81
e 48 83
e 48 89
e 48 92
e 49 52
e 49 57
e 49 59
e 49 61
e 49 62
e 49 63
e 49 65
e 49 67
e 49 88
e 49 98
e 49 100
e 50 51
e 50 55
e 50 56
e 50 58
e 50 60
e 50 66
e 50 69
e 50 73
e 50 74
e 50 80
e 50 81
e 50 83
e 50 86
e 50 89
e 50 101
e 51 56
e 51 70
e 51 73
e 51 74
e 51 78
e 51 80
e 51 81
e 51 83
e 51 89
e 51 90
e 51 92
e 52 57
e 52 59
e 52 61
e 52 65
e 52 67
e 52 71
e 52 77
e 53 55
e 53 58
e 53 64
e 53 66
e 53 72
e 53 84
e 53 94
e 53 96
e 53 97
e 53 102
e 53 104
e 53 105
e 53 107
e 54 68
e 54 70
e 54 76
e 54 78
e 54 82
e 54 87
e 54 90
e 54 91
e 54 92
e 54 93
e 54 95
e 55 56
e 55 58
e 55 60
e 55 66
e 55 69
e 55 72
e 55 73
e 55 74
e 55 80
e 55 86
e 55 89
e 55 94
e 55 97
e 55 101
e 56 58
e 56 60
e 56 66
e 56 69
e 56 73
e 56 74
e 56 80
e 56 81
e 56 83
e 56 86
e 56 89
e 57 59
e 57 61
e 57 65
e 57 67
e 57 71
e 57 76
e 57 77
e 57 82
e 58 60
e 58 66
e 58 69
e 58 72
e 58 73
e 58 84
e 58 86
e 58 94
e 58 97
e 58 101
e 59 61
e 59 62
e 59 63
e 59 65
e 59 67
e 59 88
e 59 98
e 59 100
e 60 66
e 60 69
e 60 72
e 60 73
e 60 74
e 60 80
e 60 86
e 60 89
e 60 94
e 60 97
e 60 101
e 61 65
e 61 67
e 61 71
e 61 77
e 62 63
e 62 64
e 62 65
e 62 75
e 62 79
e 62 85
e 62 88
e 62 98
e 62 99
e 62 100
e 62 103
e 63 65
e 63 75
e 63 79
e 63 85
e 63 88
e 63 98
e 63 99
e 63 100
e 63 103
e 64 75
e 64 79
e 64 84
e 64 85
e 64 96
e 64 104
e 64 105
e 64 106
e 65 88
e 65 98
e 65 99
e 65 100
e 66 69
e 66 72
e 66 73
e 66 74
e 66 86
e 66 94
e 66 97
e 66 101
e 67 71
e 67 76
e 67 77
e 67 82
e 68 70
e 68 71
e 68 76
e 68 77
e 68 82
e 68 87
e 68 90
e 68 91
e 68 93
e 68 95
e 69 72
e 69 73
e 69 74
e 69 80
e 69 86
e 69 89
e 69 94
e 69 97
e 69 101
e 70 78
e 70 87
e 70 90
e 70 91
e 70 92
e 71 76
e 71 77
e 71 82
e 71 87
e 71 93
e 71 95
e 72 84
e 72 94
e 72 97
e 72 101
e 72 102
e 73 74
e 73 80
e 73 81
e 73 83
e 73 86
e 73 89
e 74 80
e 74 81
e 74 83
e 74 86
e 74 89
e 75 79
e 75 85
e 75 88
e 75 96
e 75 99
e 75 103
e 75 106
e 76 77
e 76 82
e 76 87
e 76 93
e 76 95
e 77 82
e 77 87
e 77 93
e 77 95
e 78 81
e 78 83
e 78 90
e 78 91
e 78 92
e 79 85
e 79 88
e 79 96
e 79 98
e 79 99
e 79 100
e 79 103
e 79 106
e 80 81
e 80 83
e 80 86
e 80 89
e 81 83
e 81 89
e 81 92
e 82 87
e 82 93
e 82 95
e 83 89
e 83 92
e 84 94
e 84 96
e 84 97
e 84 102
e 84 104
e 84 105
e 84 107
e 85 88
e 85 98
e 85 99
e 85 100
e 85 103
e 85 106
e 86 89
e 86 94
e 86 97
e 86 101
e 87 90
e 87 91
e 87 93
e 87 95
e 88 98
e 88 99
e 88 100
e 88 103
e 90 91
e 90 92
e 91 92
e 91 95
e 93 95
e 94 97
e 94 101
e 96 102
e 96 104
e 96 105
e 96 106
e 96 107
e 97 101
e 98 99
e 98 100
e 98 103
e 99 100
e 99 103
e 100 103
e 102 104
e 102 105
e 102 107
e 104 105
e 104 106
e 104 107
e 105 106
e 105 107
e 106 107
